(set-option :produce-models true)
(set-logic QF_LRA)
(set-info :notes | Strip-packing problem.|)
(declare-fun x0 () Real)
(declare-fun y0 () Real)
(declare-fun x1 () Real)
(declare-fun y1 () Real)
(declare-fun x2 () Real)
(declare-fun y2 () Real)
(declare-fun x3 () Real)
(declare-fun y3 () Real)
(declare-fun x4 () Real)
(declare-fun y4 () Real)
(declare-fun x5 () Real)
(declare-fun y5 () Real)
(declare-fun x6 () Real)
(declare-fun y6 () Real)
(declare-fun x7 () Real)
(declare-fun y7 () Real)
(declare-fun x8 () Real)
(declare-fun y8 () Real)
(declare-fun x9 () Real)
(declare-fun y9 () Real)
(declare-fun x10 () Real)
(declare-fun y10 () Real)
(declare-fun x11 () Real)
(declare-fun y11 () Real)
(declare-fun x12 () Real)
(declare-fun y12 () Real)
(declare-fun x13 () Real)
(declare-fun y13 () Real)
(declare-fun x14 () Real)
(declare-fun y14 () Real)
(declare-fun z () Real)
(declare-fun c () Real)
(assert (and (= c z) (and (>= x0 0) 
(and (>= y0 0) 
(and (>= x1 0) 
(and (>= y1 0) 
(and (>= x2 0) 
(and (>= y2 0) 
(and (>= x3 0) 
(and (>= y3 0) 
(and (>= x4 0) 
(and (>= y4 0) 
(and (>= x5 0) 
(and (>= y5 0) 
(and (>= x6 0) 
(and (>= y6 0) 
(and (>= x7 0) 
(and (>= y7 0) 
(and (>= x8 0) 
(and (>= y8 0) 
(and (>= x9 0) 
(and (>= y9 0) 
(and (>= x10 0) 
(and (>= y10 0) 
(and (>= x11 0) 
(and (>= y11 0) 
(and (>= x12 0) 
(and (>= y12 0) 
(and (>= x13 0) 
(and (>= y13 0) 
(and (>= x14 0) 
(and (>= y14 0) 
(and (>= z 0) 
(and (>= c 0) 
(and (<= (+ x0 0.1905695433) z) 
(and (<= 0.9935012403 y0) 
(and (<= y0 1.0) 
(and (<= x0 (- 6.3697168262 0.1905695433)) 
(and (>= x0 0) 
(and (<= (+ x1 0.3605732015) z) 
(and (<= 0.9749892448 y1) 
(and (<= y1 1.0) 
(and (<= x1 (- 6.3697168262 0.3605732015)) 
(and (>= x1 0) 
(and (<= (+ x2 0.5780781803) z) 
(and (<= 0.9702027806 y2) 
(and (<= y2 1.0) 
(and (<= x2 (- 6.3697168262 0.5780781803)) 
(and (>= x2 0) 
(and (<= (+ x3 0.1078204323) z) 
(and (<= 0.9130611674 y3) 
(and (<= y3 1.0) 
(and (<= x3 (- 6.3697168262 0.1078204323)) 
(and (>= x3 0) 
(and (<= (+ x4 0.9072541566) z) 
(and (<= 0.9032836232 y4) 
(and (<= y4 1.0) 
(and (<= x4 (- 6.3697168262 0.9072541566)) 
(and (>= x4 0) 
(and (<= (+ x5 0.6597494835) z) 
(and (<= 0.8445205002 y5) 
(and (<= y5 1.0) 
(and (<= x5 (- 6.3697168262 0.6597494835)) 
(and (>= x5 0) 
(and (<= (+ x6 0.9734640303) z) 
(and (<= 0.8011623493 y6) 
(and (<= y6 1.0) 
(and (<= x6 (- 6.3697168262 0.9734640303)) 
(and (>= x6 0) 
(and (<= (+ x7 0.7249706816) z) 
(and (<= 0.7767892619 y7) 
(and (<= y7 1.0) 
(and (<= x7 (- 6.3697168262 0.7249706816)) 
(and (>= x7 0) 
(and (<= (+ x8 0.0427869278) z) 
(and (<= 0.6634054549 y8) 
(and (<= y8 1.0) 
(and (<= x8 (- 6.3697168262 0.0427869278)) 
(and (>= x8 0) 
(and (<= (+ x9 0.7813620252) z) 
(and (<= 0.4946447119 y9) 
(and (<= y9 1.0) 
(and (<= x9 (- 6.3697168262 0.7813620252)) 
(and (>= x9 0) 
(and (<= (+ x10 0.3501155622) z) 
(and (<= 0.4550585194 y10) 
(and (<= y10 1.0) 
(and (<= x10 (- 6.3697168262 0.3501155622)) 
(and (>= x10 0) 
(and (<= (+ x11 0.779559378) z) 
(and (<= 0.4107343161 y11) 
(and (<= y11 1.0) 
(and (<= x11 (- 6.3697168262 0.779559378)) 
(and (>= x11 0) 
(and (<= (+ x12 0.1525056337) z) 
(and (<= 0.3962739686 y12) 
(and (<= y12 1.0) 
(and (<= x12 (- 6.3697168262 0.1525056337)) 
(and (>= x12 0) 
(and (<= (+ x13 0.2635287858) z) 
(and (<= 0.3233005126 y13) 
(and (<= y13 1.0) 
(and (<= x13 (- 6.3697168262 0.2635287858)) 
(and (>= x13 0) 
(and (<= (+ x14 0.1941807482) z) 
(and (<= 0.301860605 y14) 
(and (<= y14 1.0) 
(and (<= x14 (- 6.3697168262 0.1941807482)) 
(and (>= x14 0) 
(and (<= c 6.3697168262) 
(and (or (<= (+ x0 0.1905695433) x1) (or (<= (+ x1 0.3605732015) x0) (or (>= (- y0 0.9935012403) y1) (or (>= (- y1 0.9749892448) y0))))) 
(and (or (<= (+ x0 0.1905695433) x2) (or (<= (+ x2 0.5780781803) x0) (or (>= (- y0 0.9935012403) y2) (or (>= (- y2 0.9702027806) y0))))) 
(and (or (<= (+ x0 0.1905695433) x3) (or (<= (+ x3 0.1078204323) x0) (or (>= (- y0 0.9935012403) y3) (or (>= (- y3 0.9130611674) y0))))) 
(and (or (<= (+ x0 0.1905695433) x4) (or (<= (+ x4 0.9072541566) x0) (or (>= (- y0 0.9935012403) y4) (or (>= (- y4 0.9032836232) y0))))) 
(and (or (<= (+ x0 0.1905695433) x5) (or (<= (+ x5 0.6597494835) x0) (or (>= (- y0 0.9935012403) y5) (or (>= (- y5 0.8445205002) y0))))) 
(and (or (<= (+ x0 0.1905695433) x6) (or (<= (+ x6 0.9734640303) x0) (or (>= (- y0 0.9935012403) y6) (or (>= (- y6 0.8011623493) y0))))) 
(and (or (<= (+ x0 0.1905695433) x7) (or (<= (+ x7 0.7249706816) x0) (or (>= (- y0 0.9935012403) y7) (or (>= (- y7 0.7767892619) y0))))) 
(and (or (<= (+ x0 0.1905695433) x8) (or (<= (+ x8 0.0427869278) x0) (or (>= (- y0 0.9935012403) y8) (or (>= (- y8 0.6634054549) y0))))) 
(and (or (<= (+ x0 0.1905695433) x9) (or (<= (+ x9 0.7813620252) x0) (or (>= (- y0 0.9935012403) y9) (or (>= (- y9 0.4946447119) y0))))) 
(and (or (<= (+ x0 0.1905695433) x10) (or (<= (+ x10 0.3501155622) x0) (or (>= (- y0 0.9935012403) y10) (or (>= (- y10 0.4550585194) y0))))) 
(and (or (<= (+ x0 0.1905695433) x11) (or (<= (+ x11 0.779559378) x0) (or (>= (- y0 0.9935012403) y11) (or (>= (- y11 0.4107343161) y0))))) 
(and (or (<= (+ x0 0.1905695433) x12) (or (<= (+ x12 0.1525056337) x0) (or (>= (- y0 0.9935012403) y12) (or (>= (- y12 0.3962739686) y0))))) 
(and (or (<= (+ x0 0.1905695433) x13) (or (<= (+ x13 0.2635287858) x0) (or (>= (- y0 0.9935012403) y13) (or (>= (- y13 0.3233005126) y0))))) 
(and (or (<= (+ x0 0.1905695433) x14) (or (<= (+ x14 0.1941807482) x0) (or (>= (- y0 0.9935012403) y14) (or (>= (- y14 0.301860605) y0))))) 
(and (or (<= (+ x1 0.3605732015) x2) (or (<= (+ x2 0.5780781803) x1) (or (>= (- y1 0.9749892448) y2) (or (>= (- y2 0.9702027806) y1))))) 
(and (or (<= (+ x1 0.3605732015) x3) (or (<= (+ x3 0.1078204323) x1) (or (>= (- y1 0.9749892448) y3) (or (>= (- y3 0.9130611674) y1))))) 
(and (or (<= (+ x1 0.3605732015) x4) (or (<= (+ x4 0.9072541566) x1) (or (>= (- y1 0.9749892448) y4) (or (>= (- y4 0.9032836232) y1))))) 
(and (or (<= (+ x1 0.3605732015) x5) (or (<= (+ x5 0.6597494835) x1) (or (>= (- y1 0.9749892448) y5) (or (>= (- y5 0.8445205002) y1))))) 
(and (or (<= (+ x1 0.3605732015) x6) (or (<= (+ x6 0.9734640303) x1) (or (>= (- y1 0.9749892448) y6) (or (>= (- y6 0.8011623493) y1))))) 
(and (or (<= (+ x1 0.3605732015) x7) (or (<= (+ x7 0.7249706816) x1) (or (>= (- y1 0.9749892448) y7) (or (>= (- y7 0.7767892619) y1))))) 
(and (or (<= (+ x1 0.3605732015) x8) (or (<= (+ x8 0.0427869278) x1) (or (>= (- y1 0.9749892448) y8) (or (>= (- y8 0.6634054549) y1))))) 
(and (or (<= (+ x1 0.3605732015) x9) (or (<= (+ x9 0.7813620252) x1) (or (>= (- y1 0.9749892448) y9) (or (>= (- y9 0.4946447119) y1))))) 
(and (or (<= (+ x1 0.3605732015) x10) (or (<= (+ x10 0.3501155622) x1) (or (>= (- y1 0.9749892448) y10) (or (>= (- y10 0.4550585194) y1))))) 
(and (or (<= (+ x1 0.3605732015) x11) (or (<= (+ x11 0.779559378) x1) (or (>= (- y1 0.9749892448) y11) (or (>= (- y11 0.4107343161) y1))))) 
(and (or (<= (+ x1 0.3605732015) x12) (or (<= (+ x12 0.1525056337) x1) (or (>= (- y1 0.9749892448) y12) (or (>= (- y12 0.3962739686) y1))))) 
(and (or (<= (+ x1 0.3605732015) x13) (or (<= (+ x13 0.2635287858) x1) (or (>= (- y1 0.9749892448) y13) (or (>= (- y13 0.3233005126) y1))))) 
(and (or (<= (+ x1 0.3605732015) x14) (or (<= (+ x14 0.1941807482) x1) (or (>= (- y1 0.9749892448) y14) (or (>= (- y14 0.301860605) y1))))) 
(and (or (<= (+ x2 0.5780781803) x3) (or (<= (+ x3 0.1078204323) x2) (or (>= (- y2 0.9702027806) y3) (or (>= (- y3 0.9130611674) y2))))) 
(and (or (<= (+ x2 0.5780781803) x4) (or (<= (+ x4 0.9072541566) x2) (or (>= (- y2 0.9702027806) y4) (or (>= (- y4 0.9032836232) y2))))) 
(and (or (<= (+ x2 0.5780781803) x5) (or (<= (+ x5 0.6597494835) x2) (or (>= (- y2 0.9702027806) y5) (or (>= (- y5 0.8445205002) y2))))) 
(and (or (<= (+ x2 0.5780781803) x6) (or (<= (+ x6 0.9734640303) x2) (or (>= (- y2 0.9702027806) y6) (or (>= (- y6 0.8011623493) y2))))) 
(and (or (<= (+ x2 0.5780781803) x7) (or (<= (+ x7 0.7249706816) x2) (or (>= (- y2 0.9702027806) y7) (or (>= (- y7 0.7767892619) y2))))) 
(and (or (<= (+ x2 0.5780781803) x8) (or (<= (+ x8 0.0427869278) x2) (or (>= (- y2 0.9702027806) y8) (or (>= (- y8 0.6634054549) y2))))) 
(and (or (<= (+ x2 0.5780781803) x9) (or (<= (+ x9 0.7813620252) x2) (or (>= (- y2 0.9702027806) y9) (or (>= (- y9 0.4946447119) y2))))) 
(and (or (<= (+ x2 0.5780781803) x10) (or (<= (+ x10 0.3501155622) x2) (or (>= (- y2 0.9702027806) y10) (or (>= (- y10 0.4550585194) y2))))) 
(and (or (<= (+ x2 0.5780781803) x11) (or (<= (+ x11 0.779559378) x2) (or (>= (- y2 0.9702027806) y11) (or (>= (- y11 0.4107343161) y2))))) 
(and (or (<= (+ x2 0.5780781803) x12) (or (<= (+ x12 0.1525056337) x2) (or (>= (- y2 0.9702027806) y12) (or (>= (- y12 0.3962739686) y2))))) 
(and (or (<= (+ x2 0.5780781803) x13) (or (<= (+ x13 0.2635287858) x2) (or (>= (- y2 0.9702027806) y13) (or (>= (- y13 0.3233005126) y2))))) 
(and (or (<= (+ x2 0.5780781803) x14) (or (<= (+ x14 0.1941807482) x2) (or (>= (- y2 0.9702027806) y14) (or (>= (- y14 0.301860605) y2))))) 
(and (or (<= (+ x3 0.1078204323) x4) (or (<= (+ x4 0.9072541566) x3) (or (>= (- y3 0.9130611674) y4) (or (>= (- y4 0.9032836232) y3))))) 
(and (or (<= (+ x3 0.1078204323) x5) (or (<= (+ x5 0.6597494835) x3) (or (>= (- y3 0.9130611674) y5) (or (>= (- y5 0.8445205002) y3))))) 
(and (or (<= (+ x3 0.1078204323) x6) (or (<= (+ x6 0.9734640303) x3) (or (>= (- y3 0.9130611674) y6) (or (>= (- y6 0.8011623493) y3))))) 
(and (or (<= (+ x3 0.1078204323) x7) (or (<= (+ x7 0.7249706816) x3) (or (>= (- y3 0.9130611674) y7) (or (>= (- y7 0.7767892619) y3))))) 
(and (or (<= (+ x3 0.1078204323) x8) (or (<= (+ x8 0.0427869278) x3) (or (>= (- y3 0.9130611674) y8) (or (>= (- y8 0.6634054549) y3))))) 
(and (or (<= (+ x3 0.1078204323) x9) (or (<= (+ x9 0.7813620252) x3) (or (>= (- y3 0.9130611674) y9) (or (>= (- y9 0.4946447119) y3))))) 
(and (or (<= (+ x3 0.1078204323) x10) (or (<= (+ x10 0.3501155622) x3) (or (>= (- y3 0.9130611674) y10) (or (>= (- y10 0.4550585194) y3))))) 
(and (or (<= (+ x3 0.1078204323) x11) (or (<= (+ x11 0.779559378) x3) (or (>= (- y3 0.9130611674) y11) (or (>= (- y11 0.4107343161) y3))))) 
(and (or (<= (+ x3 0.1078204323) x12) (or (<= (+ x12 0.1525056337) x3) (or (>= (- y3 0.9130611674) y12) (or (>= (- y12 0.3962739686) y3))))) 
(and (or (<= (+ x3 0.1078204323) x13) (or (<= (+ x13 0.2635287858) x3) (or (>= (- y3 0.9130611674) y13) (or (>= (- y13 0.3233005126) y3))))) 
(and (or (<= (+ x3 0.1078204323) x14) (or (<= (+ x14 0.1941807482) x3) (or (>= (- y3 0.9130611674) y14) (or (>= (- y14 0.301860605) y3))))) 
(and (or (<= (+ x4 0.9072541566) x5) (or (<= (+ x5 0.6597494835) x4) (or (>= (- y4 0.9032836232) y5) (or (>= (- y5 0.8445205002) y4))))) 
(and (or (<= (+ x4 0.9072541566) x6) (or (<= (+ x6 0.9734640303) x4) (or (>= (- y4 0.9032836232) y6) (or (>= (- y6 0.8011623493) y4))))) 
(and (or (<= (+ x4 0.9072541566) x7) (or (<= (+ x7 0.7249706816) x4) (or (>= (- y4 0.9032836232) y7) (or (>= (- y7 0.7767892619) y4))))) 
(and (or (<= (+ x4 0.9072541566) x8) (or (<= (+ x8 0.0427869278) x4) (or (>= (- y4 0.9032836232) y8) (or (>= (- y8 0.6634054549) y4))))) 
(and (or (<= (+ x4 0.9072541566) x9) (or (<= (+ x9 0.7813620252) x4) (or (>= (- y4 0.9032836232) y9) (or (>= (- y9 0.4946447119) y4))))) 
(and (or (<= (+ x4 0.9072541566) x10) (or (<= (+ x10 0.3501155622) x4) (or (>= (- y4 0.9032836232) y10) (or (>= (- y10 0.4550585194) y4))))) 
(and (or (<= (+ x4 0.9072541566) x11) (or (<= (+ x11 0.779559378) x4) (or (>= (- y4 0.9032836232) y11) (or (>= (- y11 0.4107343161) y4))))) 
(and (or (<= (+ x4 0.9072541566) x12) (or (<= (+ x12 0.1525056337) x4) (or (>= (- y4 0.9032836232) y12) (or (>= (- y12 0.3962739686) y4))))) 
(and (or (<= (+ x4 0.9072541566) x13) (or (<= (+ x13 0.2635287858) x4) (or (>= (- y4 0.9032836232) y13) (or (>= (- y13 0.3233005126) y4))))) 
(and (or (<= (+ x4 0.9072541566) x14) (or (<= (+ x14 0.1941807482) x4) (or (>= (- y4 0.9032836232) y14) (or (>= (- y14 0.301860605) y4))))) 
(and (or (<= (+ x5 0.6597494835) x6) (or (<= (+ x6 0.9734640303) x5) (or (>= (- y5 0.8445205002) y6) (or (>= (- y6 0.8011623493) y5))))) 
(and (or (<= (+ x5 0.6597494835) x7) (or (<= (+ x7 0.7249706816) x5) (or (>= (- y5 0.8445205002) y7) (or (>= (- y7 0.7767892619) y5))))) 
(and (or (<= (+ x5 0.6597494835) x8) (or (<= (+ x8 0.0427869278) x5) (or (>= (- y5 0.8445205002) y8) (or (>= (- y8 0.6634054549) y5))))) 
(and (or (<= (+ x5 0.6597494835) x9) (or (<= (+ x9 0.7813620252) x5) (or (>= (- y5 0.8445205002) y9) (or (>= (- y9 0.4946447119) y5))))) 
(and (or (<= (+ x5 0.6597494835) x10) (or (<= (+ x10 0.3501155622) x5) (or (>= (- y5 0.8445205002) y10) (or (>= (- y10 0.4550585194) y5))))) 
(and (or (<= (+ x5 0.6597494835) x11) (or (<= (+ x11 0.779559378) x5) (or (>= (- y5 0.8445205002) y11) (or (>= (- y11 0.4107343161) y5))))) 
(and (or (<= (+ x5 0.6597494835) x12) (or (<= (+ x12 0.1525056337) x5) (or (>= (- y5 0.8445205002) y12) (or (>= (- y12 0.3962739686) y5))))) 
(and (or (<= (+ x5 0.6597494835) x13) (or (<= (+ x13 0.2635287858) x5) (or (>= (- y5 0.8445205002) y13) (or (>= (- y13 0.3233005126) y5))))) 
(and (or (<= (+ x5 0.6597494835) x14) (or (<= (+ x14 0.1941807482) x5) (or (>= (- y5 0.8445205002) y14) (or (>= (- y14 0.301860605) y5))))) 
(and (or (<= (+ x6 0.9734640303) x7) (or (<= (+ x7 0.7249706816) x6) (or (>= (- y6 0.8011623493) y7) (or (>= (- y7 0.7767892619) y6))))) 
(and (or (<= (+ x6 0.9734640303) x8) (or (<= (+ x8 0.0427869278) x6) (or (>= (- y6 0.8011623493) y8) (or (>= (- y8 0.6634054549) y6))))) 
(and (or (<= (+ x6 0.9734640303) x9) (or (<= (+ x9 0.7813620252) x6) (or (>= (- y6 0.8011623493) y9) (or (>= (- y9 0.4946447119) y6))))) 
(and (or (<= (+ x6 0.9734640303) x10) (or (<= (+ x10 0.3501155622) x6) (or (>= (- y6 0.8011623493) y10) (or (>= (- y10 0.4550585194) y6))))) 
(and (or (<= (+ x6 0.9734640303) x11) (or (<= (+ x11 0.779559378) x6) (or (>= (- y6 0.8011623493) y11) (or (>= (- y11 0.4107343161) y6))))) 
(and (or (<= (+ x6 0.9734640303) x12) (or (<= (+ x12 0.1525056337) x6) (or (>= (- y6 0.8011623493) y12) (or (>= (- y12 0.3962739686) y6))))) 
(and (or (<= (+ x6 0.9734640303) x13) (or (<= (+ x13 0.2635287858) x6) (or (>= (- y6 0.8011623493) y13) (or (>= (- y13 0.3233005126) y6))))) 
(and (or (<= (+ x6 0.9734640303) x14) (or (<= (+ x14 0.1941807482) x6) (or (>= (- y6 0.8011623493) y14) (or (>= (- y14 0.301860605) y6))))) 
(and (or (<= (+ x7 0.7249706816) x8) (or (<= (+ x8 0.0427869278) x7) (or (>= (- y7 0.7767892619) y8) (or (>= (- y8 0.6634054549) y7))))) 
(and (or (<= (+ x7 0.7249706816) x9) (or (<= (+ x9 0.7813620252) x7) (or (>= (- y7 0.7767892619) y9) (or (>= (- y9 0.4946447119) y7))))) 
(and (or (<= (+ x7 0.7249706816) x10) (or (<= (+ x10 0.3501155622) x7) (or (>= (- y7 0.7767892619) y10) (or (>= (- y10 0.4550585194) y7))))) 
(and (or (<= (+ x7 0.7249706816) x11) (or (<= (+ x11 0.779559378) x7) (or (>= (- y7 0.7767892619) y11) (or (>= (- y11 0.4107343161) y7))))) 
(and (or (<= (+ x7 0.7249706816) x12) (or (<= (+ x12 0.1525056337) x7) (or (>= (- y7 0.7767892619) y12) (or (>= (- y12 0.3962739686) y7))))) 
(and (or (<= (+ x7 0.7249706816) x13) (or (<= (+ x13 0.2635287858) x7) (or (>= (- y7 0.7767892619) y13) (or (>= (- y13 0.3233005126) y7))))) 
(and (or (<= (+ x7 0.7249706816) x14) (or (<= (+ x14 0.1941807482) x7) (or (>= (- y7 0.7767892619) y14) (or (>= (- y14 0.301860605) y7))))) 
(and (or (<= (+ x8 0.0427869278) x9) (or (<= (+ x9 0.7813620252) x8) (or (>= (- y8 0.6634054549) y9) (or (>= (- y9 0.4946447119) y8))))) 
(and (or (<= (+ x8 0.0427869278) x10) (or (<= (+ x10 0.3501155622) x8) (or (>= (- y8 0.6634054549) y10) (or (>= (- y10 0.4550585194) y8))))) 
(and (or (<= (+ x8 0.0427869278) x11) (or (<= (+ x11 0.779559378) x8) (or (>= (- y8 0.6634054549) y11) (or (>= (- y11 0.4107343161) y8))))) 
(and (or (<= (+ x8 0.0427869278) x12) (or (<= (+ x12 0.1525056337) x8) (or (>= (- y8 0.6634054549) y12) (or (>= (- y12 0.3962739686) y8))))) 
(and (or (<= (+ x8 0.0427869278) x13) (or (<= (+ x13 0.2635287858) x8) (or (>= (- y8 0.6634054549) y13) (or (>= (- y13 0.3233005126) y8))))) 
(and (or (<= (+ x8 0.0427869278) x14) (or (<= (+ x14 0.1941807482) x8) (or (>= (- y8 0.6634054549) y14) (or (>= (- y14 0.301860605) y8))))) 
(and (or (<= (+ x9 0.7813620252) x10) (or (<= (+ x10 0.3501155622) x9) (or (>= (- y9 0.4946447119) y10) (or (>= (- y10 0.4550585194) y9))))) 
(and (or (<= (+ x9 0.7813620252) x11) (or (<= (+ x11 0.779559378) x9) (or (>= (- y9 0.4946447119) y11) (or (>= (- y11 0.4107343161) y9))))) 
(and (or (<= (+ x9 0.7813620252) x12) (or (<= (+ x12 0.1525056337) x9) (or (>= (- y9 0.4946447119) y12) (or (>= (- y12 0.3962739686) y9))))) 
(and (or (<= (+ x9 0.7813620252) x13) (or (<= (+ x13 0.2635287858) x9) (or (>= (- y9 0.4946447119) y13) (or (>= (- y13 0.3233005126) y9))))) 
(and (or (<= (+ x9 0.7813620252) x14) (or (<= (+ x14 0.1941807482) x9) (or (>= (- y9 0.4946447119) y14) (or (>= (- y14 0.301860605) y9))))) 
(and (or (<= (+ x10 0.3501155622) x11) (or (<= (+ x11 0.779559378) x10) (or (>= (- y10 0.4550585194) y11) (or (>= (- y11 0.4107343161) y10))))) 
(and (or (<= (+ x10 0.3501155622) x12) (or (<= (+ x12 0.1525056337) x10) (or (>= (- y10 0.4550585194) y12) (or (>= (- y12 0.3962739686) y10))))) 
(and (or (<= (+ x10 0.3501155622) x13) (or (<= (+ x13 0.2635287858) x10) (or (>= (- y10 0.4550585194) y13) (or (>= (- y13 0.3233005126) y10))))) 
(and (or (<= (+ x10 0.3501155622) x14) (or (<= (+ x14 0.1941807482) x10) (or (>= (- y10 0.4550585194) y14) (or (>= (- y14 0.301860605) y10))))) 
(and (or (<= (+ x11 0.779559378) x12) (or (<= (+ x12 0.1525056337) x11) (or (>= (- y11 0.4107343161) y12) (or (>= (- y12 0.3962739686) y11))))) 
(and (or (<= (+ x11 0.779559378) x13) (or (<= (+ x13 0.2635287858) x11) (or (>= (- y11 0.4107343161) y13) (or (>= (- y13 0.3233005126) y11))))) 
(and (or (<= (+ x11 0.779559378) x14) (or (<= (+ x14 0.1941807482) x11) (or (>= (- y11 0.4107343161) y14) (or (>= (- y14 0.301860605) y11))))) 
(and (or (<= (+ x12 0.1525056337) x13) (or (<= (+ x13 0.2635287858) x12) (or (>= (- y12 0.3962739686) y13) (or (>= (- y13 0.3233005126) y12))))) 
(and (or (<= (+ x12 0.1525056337) x14) (or (<= (+ x14 0.1941807482) x12) (or (>= (- y12 0.3962739686) y14) (or (>= (- y14 0.301860605) y12))))) 
(and (or (<= (+ x13 0.2635287858) x14) (or (<= (+ x14 0.1941807482) x13) (or (>= (- y13 0.3233005126) y14) (or (>= (- y14 0.301860605) y13))))) )))))))))))))))))))))))))))))))))))))))))))))))))))))))))))))))))))))))))))))))))))))))))))))))))))))))))))))))))))))))))))))))))))))))))))))))))))))))))))))))))))))))))))))))))))))))))))))))))))))))))))))))))))))))
(minimize c)
(check-sat)
(get-objectives)
(exit)
